Instance name:    bar-n100-5
Authors:          PDPTW Solver
Date:             2025-11-20
Reference:        LNS with SA/RTR
Solution
Route 1 : 28 78 27 18 77 68 5 10 26 60 55 76 38 88 31 81
Route 2 : 36 50 11 100 86 35 61 42 49 92 23 85 73 33 99 83
Route 3 : 47 34 84 97 22 72 41 14 91 7 64 39 57 89
Route 4 : 37 87 45 25 95 30 80 19 75 69 1 2 52 51 8 58
Route 5 : 13 63 44 12 62 94 29 6 56 79 20 70 32 82
Route 6 : 9 59 21 71
Route 7 : 3 53 15 48 65 40 98 24 90 46 96 74 43 4 54 93 16 66 17 67
